Node Number	Equivalent (von-Mises) Stress (MPa)
141	831.41
1097	1226.1
1425	1466.4
1445	1552.2
1426	1489.7
244	1576.9
687	1802.2
1058	1681.2
682	1893.4
690	1924.2
689	1961.3
58	2209.3
